50, 671
48, 48
44, 44
36, 36
46, 46
4, 4
22, 22
12, 12
48, 48
22, 22
36, 36
22, 22
46, 46
34, 34
16, 16
46, 46
22, 22
16, 16
50, 50
26, 26
46, 46
20, 20
22, 22
22, 22
14, 14
38, 38
26, 26
30, 30
8, 8
4, 4
38, 38
20, 20
42, 42
16, 16
12, 12
28, 28
4, 4
50, 50
8, 8
42, 42
12, 12
26, 26
30, 30
2, 2
38, 38
34, 34
32, 32
18, 18
28, 28
12, 12
24, 24
